c SAT Generator for power-law distributed variable frequencies
c -g u -v 20 -c 91 -k 3 -p 2.750000 -b 3.200000 -f /home/schmidt/Devel/ni-kop-sat/data/ensemble/ruf20-91/ruf20-91-920 -u 1 -U 1 -s 318534151
p cnf 20 91
-5 18 20 0
-8 9 10 0
10 12 -20 0
15 -19 20 0
-1 -9 -11 0
10 -11 19 0
2 -7 16 0
-3 -5 -20 0
4 -11 17 0
15 17 -20 0
4 -11 19 0
1 -10 16 0
-10 11 19 0
-12 14 16 0
-1 8 -18 0
-1 7 -13 0
9 10 -13 0
2 -5 -9 0
-3 -7 10 0
2 -12 14 0
-5 6 -8 0
-5 12 -16 0
-1 -13 19 0
8 10 -14 0
-10 -15 17 0
15 -16 20 0
-11 -12 19 0
3 -4 10 0
2 -5 -18 0
7 9 14 0
14 -15 -20 0
-7 12 -13 0
-1 15 -19 0
-10 19 20 0
5 6 11 0
-1 13 19 0
8 -16 -20 0
10 -15 -16 0
-1 9 11 0
13 18 -20 0
10 14 20 0
6 16 -18 0
-4 -11 -16 0
-6 -13 -14 0
-8 10 18 0
3 -8 14 0
4 -11 13 0
7 -11 -18 0
4 -9 -13 0
-4 10 14 0
-10 11 20 0
-7 8 9 0
3 7 13 0
-1 15 19 0
7 -8 -19 0
-3 12 13 0
2 -4 6 0
-5 9 -14 0
5 -6 11 0
-2 3 5 0
8 14 -17 0
-2 4 7 0
-14 -16 20 0
8 -11 -12 0
13 -15 19 0
5 -6 15 0
-4 7 -15 0
11 12 19 0
1 4 -20 0
11 -12 18 0
-6 -18 -19 0
4 5 12 0
-2 -9 -18 0
-10 12 -20 0
10 13 -17 0
1 5 17 0
12 17 19 0
-7 12 -17 0
11 12 13 0
-3 10 -13 0
-7 16 -20 0
-2 7 8 0
6 11 -16 0
2 11 17 0
-5 15 16 0
-4 12 -13 0
7 -10 -14 0
8 -16 -19 0
9 15 -20 0
11 -13 20 0
-10 13 -16 0
